NComp = 48;
NMachine = 220;
NLocalisations=4;
NOS=2;
NAlone=21;
NFlow = 12;
NFourn = 2;
NMoisLocation = 12;
NConcurrence =0;

%Rapport localisation et os / entier
Localisations = ["Suisse","France","Etats-Unis","Italie"];
OS = ["Windows","Linux"];
Fournisseurs = ["Microsoft","Amazon"];

%Spec Composant
%Array des OS array[1..NComp, 1..NOS] of int
CompOs = [| 1,1,| 1,1, | 1,0, | 1,1, | 0,1, | 0,1,  
          | 1,1,| 1,1, | 1,0, | 1,1, | 0,1, | 0,1,
          | 1,1,| 1,1, | 1,0, | 1,1, | 0,1, | 0,1,
          | 1,1,| 1,1, | 1,0, | 1,1, | 0,1, | 0,1,
          | 1,1,| 1,1, | 1,0, | 1,1, | 0,1, | 0,1,
          | 1,1,| 1,1, | 1,0, | 1,1, | 0,1, | 0,1,
          | 1,1,| 1,1, | 1,0, | 1,1, | 0,1, | 0,1,
          | 1,1,| 1,1, | 1,0, | 1,1, | 0,1, | 0,1, |];

%Array des localisations array[1..NComp, 1..NLocalisations] of int
CompLoc = [| 1,1,1,1, | 1,1,1,1, | 0,1,0,0, | 1,0,0,0, | 1,1,1,1, | 0,0,1,0,
           | 1,1,1,1, | 1,1,1,1, | 0,1,0,0, | 1,0,0,0, | 1,1,1,1, | 0,0,1,0,
           | 1,1,1,1, | 1,1,1,1, | 0,1,0,0, | 1,0,0,0, | 1,1,1,1, | 0,0,1,0,
           | 1,1,1,1, | 1,1,1,1, | 0,1,0,0, | 1,0,0,0, | 1,1,1,1, | 0,0,1,0,
           | 1,1,1,1, | 1,1,1,1, | 0,1,0,0, | 1,0,0,0, | 1,1,1,1, | 0,0,1,0,
           | 1,1,1,1, | 1,1,1,1, | 0,1,0,0, | 1,0,0,0, | 1,1,1,1, | 0,0,1,0,
           | 1,1,1,1, | 1,1,1,1, | 0,1,0,0, | 1,0,0,0, | 1,1,1,1, | 0,0,1,0,
           | 1,1,1,1, | 1,1,1,1, | 0,1,0,0, | 1,0,0,0, | 1,1,1,1, | 0,0,1,0, |];

%Array des memoires array[1..Ncomp] of int
CompMem = [4,8,4,4,8,4,4,8,4,4,8,4,4,8,4,4,8,4,4,8,4,4,8,4,4,8,4,4,8,4,4,8,4,4,8,4,4,8,4,4,8,4,4,8,4,4,8,4];

%Array des processeurs array[1..Ncomp] of int
CompProc = [2,2,4,4,2,2,2,2,4,4,2,2,2,2,4,4,2,2,2,2,4,4,2,2,2,2,4,4,2,2,2,2,4,4,2,2,2,2,4,4,2,2,2,2,4,4,2,2];


%contrainte Alone
CompAlone = [4, 33, 22, 18, 6, 16, 29, 41, 37, 43, 21, 9, 38, 25, 16, 19, 17, 48, 36, 32, 10];

%Liste des composants soumis à Flow
CompFlow = [| 1 , 2, | 4, 5, | 35, 20, | 17 , 47, | 10, 6, | 32, 21,
            | 47, 5, | 23, 29, | 12 ,16, | 40, 10, | 6, 25, | 37, 7, |];
            
%Liste des composants soumis à Concurrence
CompConcurrence=[];

%Spec Machine
%Array des OS array[1..NMachine] of int
VMOs = [2,1,1,1,2,2,1,1,2,2,1,2,1,1,1,2,2,1,1,2,2,1,2,1,1,1,2,2,1,1,2,2,1,2,1,1,1,2,2,1,1,2,2,1,2,1,1,1,2,2,1,1,2,2,1,
        2,1,1,1,2,2,1,1,2,2,1,2,1,1,1,2,2,1,1,2,2,1,2,1,1,1,2,2,1,1,2,2,1,2,1,1,1,2,2,1,1,2,2,1,2,1,1,1,2,2,1,1,2,2,1,
        2,1,1,1,2,2,1,1,2,2,1,2,1,1,1,2,2,1,1,2,2,1,2,1,1,1,2,2,1,1,2,2,1,2,1,1,1,2,2,1,1,2,2,1,2,1,1,1,2,2,1,1,2,2,1,
        2,1,1,1,2,2,1,1,2,2,1,2,1,1,1,2,2,1,1,2,2,1,2,1,1,1,2,2,1,1,2,2,1,2,1,1,1,2,2,1,1,2,2,1,2,1,1,1,2,2,1,1,2,2,1];

%Array des localisations array[1..NMachine] of int
VMLoc = [1,2,2,2,1,1,3,3,3,4,4,1,2,2,2,1,1,3,3,3,4,4,1,2,2,2,1,1,3,3,3,4,4,1,2,2,2,1,1,3,3,3,4,4,1,2,2,2,1,1,3,3,3,4,4,
         1,2,2,2,1,1,3,3,3,4,4,1,2,2,2,1,1,3,3,3,4,4,1,2,2,2,1,1,3,3,3,4,4,1,2,2,2,1,1,3,3,3,4,4,1,2,2,2,1,1,3,3,3,4,4,
         1,2,2,2,1,1,3,3,3,4,4,1,2,2,2,1,1,3,3,3,4,4,1,2,2,2,1,1,3,3,3,4,4,1,2,2,2,1,1,3,3,3,4,4,1,2,2,2,1,1,3,3,3,4,4,
         1,2,2,2,1,1,3,3,3,4,4,1,2,2,2,1,1,3,3,3,4,4,1,2,2,2,1,1,3,3,3,4,4,1,2,2,2,1,1,3,3,3,4,4,1,2,2,2,1,1,3,3,3,4,4];

%Array des memoires array[1..NMachine] of int
VMMem = [16,8,8,8,8,8,8,8,16,32,8,16,8,8,8,8,8,8,8,16,32,8,16,8,8,8,8,8,8,8,16,32,8,16,8,8,8,8,8,8,8,16,32,8,16,8,8,8,8,8,8,8,16,32,8,16,8,8,8,8,8,8,8,16,32,8,16,8,8,8,8,8,8,8,16,32,8,16,8,8,8,8,8,8,8,16,32,8,16,8,8,8,8,8,8,8,16,32,8,16,8,8,8,8,8,8,8,16,32,8,16,8,8,8,8,8,8,8,16,32,8,16,8,8,8,8,8,8,8,16,32,8,16,8,8,8,8,8,8,8,16,32,8,16,8,8,8,8,8,8,8,16,32,8,16,8,8,8,8,8,8,8,16,32,8,16,8,8,8,8,8,8,8,16,32,8,16,8,8,8,8,8,8,8,16,32,8,16,8,8,8,8,8,8,8,16,32,8,16,8,8,8,8,8,8,8,16,32,8,16,8,8,8,8,8,8,8,16,32,8];

%Array des processeurs array[1..NMachine] of int
VMProc = [8,4,4,4,8,2,2,8,8,4,4,8,4,4,4,8,2,2,8,8,4,4,8,4,4,4,8,2,2,8,8,4,4,8,4,4,4,8,2,2,8,8,4,4,8,4,4,4,8,2,2,8,8,4,4,8,4,4,4,8,2,2,8,8,4,4,8,4,4,4,8,2,2,8,8,4,4,8,4,4,4,8,2,2,8,8,4,4,8,4,4,4,8,2,2,8,8,4,4,8,4,4,4,8,2,2,8,8,4,4,8,4,4,4,8,2,2,8,8,4,4,8,4,4,4,8,2,2,8,8,4,4,8,4,4,4,8,2,2,8,8,4,4,8,4,4,4,8,2,2,8,8,4,4,8,4,4,4,8,2,2,8,8,4,4,8,4,4,4,8,2,2,8,8,4,4,8,4,4,4,8,2,2,8,8,4,4,8,4,4,4,8,2,2,8,8,4,4,8,4,4,4,8,2,2,8,8,4,4,8,4,4,4,8,2,2,8,8,4,4];

%Array dess cout array[1..NMachine] of int
VMCout = [100,50,60,30,40,78,32,40,100,120,70,100,50,60,30,40,78,32,40,100,120,70,100,50,60,30,40,78,32,40,100,120,70,100,50,60,30,40,78,32,40,100,120,70,100,50,60,30,40,78,32,40,100,120,70,100,50,60,30,40,78,32,40,100,120,70,100,50,60,30,40,78,32,40,100,120,70,100,50,60,30,40,78,32,40,100,120,70,100,50,60,30,40,78,32,40,100,120,70,100,50,60,30,40,78,32,40,100,120,70,100,50,60,30,40,78,32,40,100,120,70,100,50,60,30,40,78,32,40,100,120,70,100,50,60,30,40,78,32,40,100,120,70,100,50,60,30,40,78,32,40,100,120,70,100,50,60,30,40,78,32,40,100,120,70,100,50,60,30,40,78,32,40,100,120,70,100,50,60,30,40,78,32,40,100,120,70,100,50,60,30,40,78,32,40,100,120,70,100,50,60,30,40,78,32,40,100,120,70,100,50,60,30,40,78,32,40,100,120,70];

%Liste des fournisseurs des VM (exemple : 1 = Microsoft, 2 = Amazon)
VMFourn = [1,2,1,2,1,2,1,2,1,2,2,1,2,1,2,1,2,1,2,1,2,2,1,2,1,2,1,2,1,2,1,2,2,1,2,1,2,1,2,1,2,1,2,2,1,2,1,2,1,2,1,2,1,2,2,
 1,2,1,2,1,2,1,2,1,2,2,1,2,1,2,1,2,1,2,1,2,2,1,2,1,2,1,2,1,2,1,2,2,1,2,1,2,1,2,1,2,1,2,2,1,2,1,2,1,2,1,2,1,2,2,
 1,2,1,2,1,2,1,2,1,2,2,1,2,1,2,1,2,1,2,1,2,2,1,2,1,2,1,2,1,2,1,2,2,1,2,1,2,1,2,1,2,1,2,2,1,2,1,2,1,2,1,2,1,2,2,
 1,2,1,2,1,2,1,2,1,2,2,1,2,1,2,1,2,1,2,1,2,2,1,2,1,2,1,2,1,2,1,2,2,1,2,1,2,1,2,1,2,1,2,2,1,2,1,2,1,2,1,2,1,2,2];

% Prix des liens entre fournisseurs 
VMPrixLien = [| 1, 2,
              | 2, 1|];